p cnf 8 30
3 -4 -8 0
2 3 4 0
-2 -6 -8 0
1 2 -4 0
-3 -5 -8 0
3 -4 -6 0
5 -7 -8 0
2 3 -5 0
2 4 -5 0
3 4 6 0
-1 -3 4 0
1 -5 -8 0
-5 6 8 0
-1 4 8 0
-4 6 8 0
-1 3 -6 0
3 5 -7 0
-2 -5 8 0
-5 -6 7 0
1 -2 4 0
-1 -2 3 0
-1 3 -8 0
-3 5 -8 0
-2 6 -7 0
-3 4 -8 0
-1 -2 6 0
-4 5 -7 0
3 -5 8 0
1 2 7 0
-5 6 -8 0